30
1 0 46
4 3 51
5 2 4
5 3 71
7 0 33
7 6 55
9 2 22
9 8 60
10 8 18
11 5 10
12 11 10
13 2 63
13 5 62
14 6 71
14 12 15
15 2 16
15 9 33
17 7 20
18 4 73
18 6 50
18 12 68
18 17 51
19 16 58
21 5 55
21 16 19
22 1 47
22 12 42
23 1 77
23 20 30
24 20 52
25 8 22
25 10 21
27 3 20
27 14 54
27 20 41
27 21 70
27 23 71
28 12 77
29 6 45
